<number of tasks>
20

<cycle time>
1000

<order strength>
0,2


<task times>
1 471
2 107
3 160
4 379
5 491
6 269
7 141
8 119
9 201
10 485
11 255
12 312
13 54
14 441
15 302
16 79
17 507
18 47
19 81
20 143

<precedence relations>
1,4
2,5
2,6
2,7
2,8
4,9
5,11
5,14
6,12
7,10
8,13
9,16
10,15
11,17
15,18
16,19
17,20

<end>
